100 8
458 704
652 66
424 449
906 105
347 457
510 202
506 587
119 597
869 26
838 17
494 251
28 425
783 520
693 595
459 690
596 532
636 577
803 168
262 438
191 694
199 627
300 329
381 390
260 591
592 345
316 198
165 352
506 563
552 639
617 698
631 142
704 531
530 292
60 567
608 685
85 404
711 21
467 130
204 787
553 198
421 344
761 626
548 336
119 446
339 225
240 408
342 159
572 286
606 410
630 153
407 440
731 561
546 565
376 203
295 180
509 364
383 240
377 60
499 489
471 55
741 206
74 401
287 418
120 479
196 642
443 416
601 437
798 410
791 508
527 581
886 110
278 141
274 320
328 426
281 69
381 131
635 126
460 378
108 650
547 704
139 655
319 206
515 506
295 416
405 306
809 534
565 514
543 647
481 495
519 517
229 765
768 456
728 642
317 423
695 594
477 476
186 518
884 530
462 460
90 349
